p cnf 200 1110
-101 19 0
-101 51 0
-101 -98 0
-101 90 0
-101 62 0
-101 100 0
-101 -42 0
-101 96 0
-101 9 0
-101 -18 0
101 -19 -51 98 -90 -62 -100 42 -96 -9 18 0
-102 -92 0
-102 95 0
-102 -83 0
-102 -96 0
-102 1 0
-102 -28 0
-102 -89 0
-102 64 0
-102 77 0
-102 48 0
102 92 -95 83 96 -1 28 89 -64 -77 -48 0
-103 -2 0
-103 -100 0
-103 71 0
-103 88 0
-103 87 0
-103 54 0
-103 -68 0
-103 83 0
-103 78 0
-103 29 0
103 2 100 -71 -88 -87 -54 68 -83 -78 -29 0
-104 -93 0
-104 -60 0
-104 49 0
-104 31 0
-104 92 0
-104 18 0
-104 46 0
-104 90 0
-104 80 0
-104 -21 0
104 93 60 -49 -31 -92 -18 -46 -90 -80 21 0
-105 -93 0
-105 -81 0
-105 91 0
-105 64 0
-105 -79 0
-105 -47 0
-105 69 0
-105 -35 0
-105 14 0
-105 100 0
105 93 81 -91 -64 79 47 -69 35 -14 -100 0
-106 91 0
-106 17 0
-106 56 0
-106 -8 0
-106 34 0
-106 -48 0
-106 -7 0
-106 77 0
-106 -84 0
-106 53 0
106 -91 -17 -56 8 -34 48 7 -77 84 -53 0
-107 83 0
-107 89 0
-107 3 0
-107 58 0
-107 97 0
-107 51 0
-107 -95 0
-107 16 0
-107 88 0
-107 84 0
107 -83 -89 -3 -58 -97 -51 95 -16 -88 -84 0
-108 -74 0
-108 -16 0
-108 60 0
-108 84 0
-108 -51 0
-108 19 0
-108 -77 0
-108 -57 0
-108 53 0
-108 -69 0
108 74 16 -60 -84 51 -19 77 57 -53 69 0
-109 -18 0
-109 -27 0
-109 10 0
-109 -59 0
-109 63 0
-109 16 0
-109 47 0
-109 -70 0
-109 -57 0
-109 -11 0
109 18 27 -10 59 -63 -16 -47 70 57 11 0
-110 92 0
-110 -80 0
-110 11 0
-110 -33 0
-110 70 0
-110 87 0
-110 -49 0
-110 -50 0
-110 -90 0
-110 39 0
110 -92 80 -11 33 -70 -87 49 50 90 -39 0
101 102 103 104 105 106 107 108 109 110 0
-111 25 0
-111 -16 0
-111 12 0
-111 -76 0
-111 19 0
-111 51 0
-111 -32 0
-111 -80 0
-111 -71 0
-111 -5 0
111 -25 16 -12 76 -19 -51 32 80 71 5 0
-112 42 0
-112 -46 0
-112 87 0
-112 95 0
-112 -19 0
-112 4 0
-112 5 0
-112 99 0
-112 -100 0
-112 15 0
112 -42 46 -87 -95 19 -4 -5 -99 100 -15 0
-113 -26 0
-113 -40 0
-113 -54 0
-113 88 0
-113 76 0
-113 9 0
-113 -45 0
-113 8 0
-113 -58 0
-113 -10 0
113 26 40 54 -88 -76 -9 45 -8 58 10 0
-114 -83 0
-114 45 0
-114 1 0
-114 8 0
-114 43 0
-114 -37 0
-114 82 0
-114 -59 0
-114 84 0
-114 -96 0
114 83 -45 -1 -8 -43 37 -82 59 -84 96 0
-115 -77 0
-115 -27 0
-115 -61 0
-115 -59 0
-115 -33 0
-115 -6 0
-115 -100 0
-115 -25 0
-115 -30 0
-115 -17 0
115 77 27 61 59 33 6 100 25 30 17 0
-116 -34 0
-116 50 0
-116 -52 0
-116 84 0
-116 26 0
-116 20 0
-116 -39 0
-116 53 0
-116 -83 0
-116 72 0
116 34 -50 52 -84 -26 -20 39 -53 83 -72 0
-117 -59 0
-117 5 0
-117 -40 0
-117 95 0
-117 28 0
-117 -24 0
-117 83 0
-117 -71 0
-117 -100 0
-117 23 0
117 59 -5 40 -95 -28 24 -83 71 100 -23 0
-118 -49 0
-118 -77 0
-118 13 0
-118 -17 0
-118 -53 0
-118 -6 0
-118 46 0
-118 -76 0
-118 42 0
-118 28 0
118 49 77 -13 17 53 6 -46 76 -42 -28 0
-119 -62 0
-119 -79 0
-119 -51 0
-119 3 0
-119 38 0
-119 -47 0
-119 -71 0
-119 54 0
-119 -61 0
-119 -80 0
119 62 79 51 -3 -38 47 71 -54 61 80 0
-120 93 0
-120 49 0
-120 -36 0
-120 31 0
-120 -26 0
-120 95 0
-120 -69 0
-120 -7 0
-120 11 0
-120 59 0
120 -93 -49 36 -31 26 -95 69 7 -11 -59 0
111 112 113 114 115 116 117 118 119 120 0
-121 -88 0
-121 75 0
-121 -90 0
-121 -35 0
-121 -36 0
-121 -4 0
-121 -46 0
-121 -51 0
-121 -42 0
-121 -81 0
121 88 -75 90 35 36 4 46 51 42 81 0
-122 28 0
-122 2 0
-122 -60 0
-122 -11 0
-122 27 0
-122 -44 0
-122 39 0
-122 45 0
-122 -98 0
-122 -100 0
122 -28 -2 60 11 -27 44 -39 -45 98 100 0
-123 -70 0
-123 41 0
-123 62 0
-123 -98 0
-123 -45 0
-123 -14 0
-123 -89 0
-123 -4 0
-123 23 0
-123 52 0
123 70 -41 -62 98 45 14 89 4 -23 -52 0
-124 78 0
-124 50 0
-124 -2 0
-124 56 0
-124 20 0
-124 -24 0
-124 -84 0
-124 -66 0
-124 82 0
-124 -32 0
124 -78 -50 2 -56 -20 24 84 66 -82 32 0
-125 85 0
-125 48 0
-125 -10 0
-125 -54 0
-125 -1 0
-125 43 0
-125 31 0
-125 2 0
-125 9 0
-125 67 0
125 -85 -48 10 54 1 -43 -31 -2 -9 -67 0
-126 -44 0
-126 -86 0
-126 62 0
-126 77 0
-126 33 0
-126 22 0
-126 -79 0
-126 -48 0
-126 51 0
-126 53 0
126 44 86 -62 -77 -33 -22 79 48 -51 -53 0
-127 -30 0
-127 10 0
-127 -85 0
-127 35 0
-127 -27 0
-127 -73 0
-127 3 0
-127 14 0
-127 -66 0
-127 -77 0
127 30 -10 85 -35 27 73 -3 -14 66 77 0
-128 71 0
-128 31 0
-128 19 0
-128 74 0
-128 -100 0
-128 68 0
-128 -65 0
-128 55 0
-128 48 0
-128 73 0
128 -71 -31 -19 -74 100 -68 65 -55 -48 -73 0
-129 -21 0
-129 -71 0
-129 -83 0
-129 -17 0
-129 -6 0
-129 81 0
-129 -88 0
-129 -3 0
-129 32 0
-129 -77 0
129 21 71 83 17 6 -81 88 3 -32 77 0
-130 -41 0
-130 27 0
-130 19 0
-130 32 0
-130 21 0
-130 -53 0
-130 -15 0
-130 10 0
-130 -38 0
-130 -46 0
130 41 -27 -19 -32 -21 53 15 -10 38 46 0
121 122 123 124 125 126 127 128 129 130 0
-131 35 0
-131 5 0
-131 -32 0
-131 -29 0
-131 34 0
-131 -55 0
-131 -74 0
-131 95 0
-131 -24 0
-131 -89 0
131 -35 -5 32 29 -34 55 74 -95 24 89 0
-132 -100 0
-132 -11 0
-132 -71 0
-132 -58 0
-132 -15 0
-132 -41 0
-132 -68 0
-132 -72 0
-132 56 0
-132 -69 0
132 100 11 71 58 15 41 68 72 -56 69 0
-133 -78 0
-133 89 0
-133 -4 0
-133 -9 0
-133 -38 0
-133 -39 0
-133 99 0
-133 -77 0
-133 -35 0
-133 -66 0
133 78 -89 4 9 38 39 -99 77 35 66 0
-134 -78 0
-134 9 0
-134 -89 0
-134 14 0
-134 -23 0
-134 7 0
-134 71 0
-134 20 0
-134 21 0
-134 -67 0
134 78 -9 89 -14 23 -7 -71 -20 -21 67 0
-135 23 0
-135 -36 0
-135 -78 0
-135 -100 0
-135 42 0
-135 97 0
-135 94 0
-135 -14 0
-135 -86 0
-135 -41 0
135 -23 36 78 100 -42 -97 -94 14 86 41 0
-136 -95 0
-136 47 0
-136 -65 0
-136 -96 0
-136 61 0
-136 20 0
-136 52 0
-136 38 0
-136 13 0
-136 87 0
136 95 -47 65 96 -61 -20 -52 -38 -13 -87 0
-137 43 0
-137 27 0
-137 100 0
-137 -81 0
-137 -54 0
-137 -64 0
-137 2 0
-137 -70 0
-137 99 0
-137 12 0
137 -43 -27 -100 81 54 64 -2 70 -99 -12 0
-138 49 0
-138 -57 0
-138 32 0
-138 66 0
-138 77 0
-138 63 0
-138 -79 0
-138 43 0
-138 -90 0
-138 -1 0
138 -49 57 -32 -66 -77 -63 79 -43 90 1 0
-139 -2 0
-139 -58 0
-139 -59 0
-139 72 0
-139 62 0
-139 -82 0
-139 23 0
-139 93 0
-139 -41 0
-139 -100 0
139 2 58 59 -72 -62 82 -23 -93 41 100 0
-140 36 0
-140 23 0
-140 -26 0
-140 -87 0
-140 94 0
-140 -66 0
-140 33 0
-140 73 0
-140 58 0
-140 60 0
140 -36 -23 26 87 -94 66 -33 -73 -58 -60 0
131 132 133 134 135 136 137 138 139 140 0
-141 79 0
-141 97 0
-141 -41 0
-141 3 0
-141 -29 0
-141 -57 0
-141 -81 0
-141 32 0
-141 48 0
-141 11 0
141 -79 -97 41 -3 29 57 81 -32 -48 -11 0
-142 -85 0
-142 49 0
-142 26 0
-142 47 0
-142 -80 0
-142 17 0
-142 -16 0
-142 -33 0
-142 -41 0
-142 -61 0
142 85 -49 -26 -47 80 -17 16 33 41 61 0
-143 -21 0
-143 79 0
-143 47 0
-143 -2 0
-143 83 0
-143 3 0
-143 -76 0
-143 -98 0
-143 -39 0
-143 75 0
143 21 -79 -47 2 -83 -3 76 98 39 -75 0
-144 -83 0
-144 22 0
-144 -55 0
-144 59 0
-144 -32 0
-144 -42 0
-144 -76 0
-144 -7 0
-144 69 0
-144 -37 0
144 83 -22 55 -59 32 42 76 7 -69 37 0
-145 37 0
-145 47 0
-145 -32 0
-145 -84 0
-145 -8 0
-145 -20 0
-145 -93 0
-145 -64 0
-145 94 0
-145 -61 0
145 -37 -47 32 84 8 20 93 64 -94 61 0
-146 -34 0
-146 2 0
-146 -76 0
-146 5 0
-146 -91 0
-146 -41 0
-146 -42 0
-146 -81 0
-146 13 0
-146 20 0
146 34 -2 76 -5 91 41 42 81 -13 -20 0
-147 32 0
-147 64 0
-147 -20 0
-147 13 0
-147 -29 0
-147 60 0
-147 100 0
-147 46 0
-147 -22 0
-147 -12 0
147 -32 -64 20 -13 29 -60 -100 -46 22 12 0
-148 -9 0
-148 72 0
-148 85 0
-148 26 0
-148 -40 0
-148 44 0
-148 96 0
-148 12 0
-148 42 0
-148 -53 0
148 9 -72 -85 -26 40 -44 -96 -12 -42 53 0
-149 45 0
-149 -61 0
-149 -20 0
-149 -69 0
-149 -77 0
-149 18 0
-149 -87 0
-149 21 0
-149 11 0
-149 78 0
149 -45 61 20 69 77 -18 87 -21 -11 -78 0
-150 -75 0
-150 -67 0
-150 32 0
-150 84 0
-150 -14 0
-150 -3 0
-150 -74 0
-150 46 0
-150 48 0
-150 -44 0
150 75 67 -32 -84 14 3 74 -46 -48 44 0
141 142 143 144 145 146 147 148 149 150 0
-151 91 0
-151 -19 0
-151 74 0
-151 -47 0
-151 1 0
-151 -26 0
-151 59 0
-151 -46 0
-151 -75 0
-151 -50 0
151 -91 19 -74 47 -1 26 -59 46 75 50 0
-152 -72 0
-152 6 0
-152 79 0
-152 -100 0
-152 -87 0
-152 16 0
-152 -88 0
-152 32 0
-152 24 0
-152 -45 0
152 72 -6 -79 100 87 -16 88 -32 -24 45 0
-153 63 0
-153 83 0
-153 69 0
-153 -55 0
-153 -62 0
-153 -15 0
-153 25 0
-153 -10 0
-153 54 0
-153 7 0
153 -63 -83 -69 55 62 15 -25 10 -54 -7 0
-154 -71 0
-154 14 0
-154 -22 0
-154 -82 0
-154 -41 0
-154 45 0
-154 11 0
-154 -17 0
-154 -79 0
-154 92 0
154 71 -14 22 82 41 -45 -11 17 79 -92 0
-155 95 0
-155 -64 0
-155 -4 0
-155 32 0
-155 -8 0
-155 55 0
-155 25 0
-155 -42 0
-155 84 0
-155 -38 0
155 -95 64 4 -32 8 -55 -25 42 -84 38 0
-156 -74 0
-156 -10 0
-156 -92 0
-156 34 0
-156 -62 0
-156 73 0
-156 99 0
-156 23 0
-156 -71 0
-156 -32 0
156 74 10 92 -34 62 -73 -99 -23 71 32 0
-157 50 0
-157 26 0
-157 -29 0
-157 -21 0
-157 -59 0
-157 78 0
-157 -98 0
-157 97 0
-157 72 0
-157 -32 0
157 -50 -26 29 21 59 -78 98 -97 -72 32 0
-158 -72 0
-158 94 0
-158 78 0
-158 -49 0
-158 28 0
-158 97 0
-158 -84 0
-158 -69 0
-158 3 0
-158 43 0
158 72 -94 -78 49 -28 -97 84 69 -3 -43 0
-159 43 0
-159 67 0
-159 -53 0
-159 -77 0
-159 -25 0
-159 73 0
-159 -47 0
-159 13 0
-159 -4 0
-159 18 0
159 -43 -67 53 77 25 -73 47 -13 4 -18 0
-160 -14 0
-160 -23 0
-160 93 0
-160 -32 0
-160 3 0
-160 -31 0
-160 19 0
-160 -77 0
-160 11 0
-160 -39 0
160 14 23 -93 32 -3 31 -19 77 -11 39 0
151 152 153 154 155 156 157 158 159 160 0
-161 44 0
-161 -91 0
-161 36 0
-161 -46 0
-161 49 0
-161 4 0
-161 -62 0
-161 52 0
-161 -98 0
-161 -9 0
161 -44 91 -36 46 -49 -4 62 -52 98 9 0
-162 11 0
-162 15 0
-162 90 0
-162 -69 0
-162 3 0
-162 75 0
-162 -66 0
-162 40 0
-162 23 0
-162 91 0
162 -11 -15 -90 69 -3 -75 66 -40 -23 -91 0
-163 -83 0
-163 -80 0
-163 72 0
-163 27 0
-163 89 0
-163 -92 0
-163 -15 0
-163 73 0
-163 -47 0
-163 69 0
163 83 80 -72 -27 -89 92 15 -73 47 -69 0
-164 -52 0
-164 25 0
-164 -73 0
-164 -18 0
-164 78 0
-164 -24 0
-164 -63 0
-164 74 0
-164 -30 0
-164 -6 0
164 52 -25 73 18 -78 24 63 -74 30 6 0
-165 73 0
-165 94 0
-165 -21 0
-165 1 0
-165 -15 0
-165 41 0
-165 8 0
-165 -14 0
-165 56 0
-165 -78 0
165 -73 -94 21 -1 15 -41 -8 14 -56 78 0
-166 99 0
-166 75 0
-166 -93 0
-166 -61 0
-166 24 0
-166 10 0
-166 -13 0
-166 95 0
-166 87 0
-166 -98 0
166 -99 -75 93 61 -24 -10 13 -95 -87 98 0
-167 31 0
-167 25 0
-167 33 0
-167 2 0
-167 -85 0
-167 -50 0
-167 -47 0
-167 42 0
-167 -69 0
-167 -63 0
167 -31 -25 -33 -2 85 50 47 -42 69 63 0
-168 6 0
-168 62 0
-168 -43 0
-168 -40 0
-168 -66 0
-168 60 0
-168 95 0
-168 -17 0
-168 -37 0
-168 -100 0
168 -6 -62 43 40 66 -60 -95 17 37 100 0
-169 5 0
-169 -91 0
-169 -95 0
-169 -13 0
-169 6 0
-169 94 0
-169 85 0
-169 34 0
-169 -47 0
-169 -11 0
169 -5 91 95 13 -6 -94 -85 -34 47 11 0
-170 -39 0
-170 40 0
-170 15 0
-170 9 0
-170 -75 0
-170 44 0
-170 35 0
-170 -77 0
-170 -6 0
-170 91 0
170 39 -40 -15 -9 75 -44 -35 77 6 -91 0
161 162 163 164 165 166 167 168 169 170 0
-171 -97 0
-171 -41 0
-171 59 0
-171 -5 0
-171 23 0
-171 25 0
-171 -6 0
-171 -89 0
-171 -40 0
-171 20 0
171 97 41 -59 5 -23 -25 6 89 40 -20 0
-172 4 0
-172 9 0
-172 -35 0
-172 96 0
-172 -23 0
-172 -91 0
-172 54 0
-172 89 0
-172 39 0
-172 42 0
172 -4 -9 35 -96 23 91 -54 -89 -39 -42 0
-173 -84 0
-173 -92 0
-173 14 0
-173 10 0
-173 -67 0
-173 -100 0
-173 -39 0
-173 -2 0
-173 -29 0
-173 46 0
173 84 92 -14 -10 67 100 39 2 29 -46 0
-174 48 0
-174 -37 0
-174 -91 0
-174 78 0
-174 2 0
-174 -8 0
-174 -100 0
-174 -41 0
-174 -77 0
-174 -11 0
174 -48 37 91 -78 -2 8 100 41 77 11 0
-175 -40 0
-175 -34 0
-175 15 0
-175 41 0
-175 7 0
-175 -91 0
-175 -35 0
-175 10 0
-175 -72 0
-175 28 0
175 40 34 -15 -41 -7 91 35 -10 72 -28 0
-176 -24 0
-176 -64 0
-176 -69 0
-176 56 0
-176 -37 0
-176 -21 0
-176 -47 0
-176 12 0
-176 -60 0
-176 81 0
176 24 64 69 -56 37 21 47 -12 60 -81 0
-177 8 0
-177 -37 0
-177 93 0
-177 -14 0
-177 51 0
-177 54 0
-177 9 0
-177 84 0
-177 15 0
-177 33 0
177 -8 37 -93 14 -51 -54 -9 -84 -15 -33 0
-178 85 0
-178 11 0
-178 -33 0
-178 48 0
-178 86 0
-178 -78 0
-178 -1 0
-178 -54 0
-178 -72 0
-178 8 0
178 -85 -11 33 -48 -86 78 1 54 72 -8 0
-179 -34 0
-179 86 0
-179 53 0
-179 40 0
-179 -96 0
-179 36 0
-179 65 0
-179 18 0
-179 -78 0
-179 -8 0
179 34 -86 -53 -40 96 -36 -65 -18 78 8 0
-180 -29 0
-180 -5 0
-180 -14 0
-180 -76 0
-180 -26 0
-180 36 0
-180 41 0
-180 -66 0
-180 100 0
-180 63 0
180 29 5 14 76 26 -36 -41 66 -100 -63 0
171 172 173 174 175 176 177 178 179 180 0
-181 93 0
-181 71 0
-181 6 0
-181 -70 0
-181 60 0
-181 -27 0
-181 -88 0
-181 63 0
-181 -34 0
-181 92 0
181 -93 -71 -6 70 -60 27 88 -63 34 -92 0
-182 16 0
-182 94 0
-182 35 0
-182 63 0
-182 61 0
-182 -32 0
-182 66 0
-182 12 0
-182 -14 0
-182 -62 0
182 -16 -94 -35 -63 -61 32 -66 -12 14 62 0
-183 -100 0
-183 -46 0
-183 73 0
-183 -29 0
-183 -87 0
-183 -12 0
-183 18 0
-183 -84 0
-183 -58 0
-183 24 0
183 100 46 -73 29 87 12 -18 84 58 -24 0
-184 23 0
-184 54 0
-184 -77 0
-184 -51 0
-184 -22 0
-184 -90 0
-184 -3 0
-184 -21 0
-184 4 0
-184 -49 0
184 -23 -54 77 51 22 90 3 21 -4 49 0
-185 20 0
-185 44 0
-185 -98 0
-185 8 0
-185 -5 0
-185 21 0
-185 75 0
-185 92 0
-185 -13 0
-185 -52 0
185 -20 -44 98 -8 5 -21 -75 -92 13 52 0
-186 3 0
-186 99 0
-186 28 0
-186 -7 0
-186 19 0
-186 -22 0
-186 5 0
-186 -79 0
-186 8 0
-186 -98 0
186 -3 -99 -28 7 -19 22 -5 79 -8 98 0
-187 -57 0
-187 -16 0
-187 99 0
-187 93 0
-187 -7 0
-187 -63 0
-187 -27 0
-187 -24 0
-187 -71 0
-187 -91 0
187 57 16 -99 -93 7 63 27 24 71 91 0
-188 -60 0
-188 36 0
-188 -2 0
-188 -62 0
-188 -52 0
-188 -15 0
-188 26 0
-188 -44 0
-188 22 0
-188 69 0
188 60 -36 2 62 52 15 -26 44 -22 -69 0
-189 43 0
-189 -96 0
-189 -28 0
-189 -2 0
-189 -42 0
-189 39 0
-189 -50 0
-189 -24 0
-189 -98 0
-189 -18 0
189 -43 96 28 2 42 -39 50 24 98 18 0
-190 78 0
-190 90 0
-190 63 0
-190 64 0
-190 -88 0
-190 37 0
-190 -9 0
-190 15 0
-190 -41 0
-190 -79 0
190 -78 -90 -63 -64 88 -37 9 -15 41 79 0
181 182 183 184 185 186 187 188 189 190 0
-191 -6 0
-191 -32 0
-191 87 0
-191 -7 0
-191 61 0
-191 80 0
-191 14 0
-191 -59 0
-191 -26 0
-191 -57 0
191 6 32 -87 7 -61 -80 -14 59 26 57 0
-192 89 0
-192 -99 0
-192 -76 0
-192 -58 0
-192 50 0
-192 56 0
-192 -61 0
-192 -21 0
-192 13 0
-192 -37 0
192 -89 99 76 58 -50 -56 61 21 -13 37 0
-193 13 0
-193 1 0
-193 -80 0
-193 -16 0
-193 -99 0
-193 -51 0
-193 -86 0
-193 -33 0
-193 -29 0
-193 -3 0
193 -13 -1 80 16 99 51 86 33 29 3 0
-194 -82 0
-194 72 0
-194 33 0
-194 81 0
-194 80 0
-194 15 0
-194 88 0
-194 -74 0
-194 84 0
-194 -79 0
194 82 -72 -33 -81 -80 -15 -88 74 -84 79 0
-195 -73 0
-195 -66 0
-195 15 0
-195 -22 0
-195 -68 0
-195 1 0
-195 75 0
-195 -40 0
-195 33 0
-195 4 0
195 73 66 -15 22 68 -1 -75 40 -33 -4 0
-196 -88 0
-196 48 0
-196 -72 0
-196 95 0
-196 -86 0
-196 89 0
-196 -91 0
-196 78 0
-196 -79 0
-196 7 0
196 88 -48 72 -95 86 -89 91 -78 79 -7 0
-197 93 0
-197 -6 0
-197 -36 0
-197 -64 0
-197 -71 0
-197 98 0
-197 89 0
-197 30 0
-197 46 0
-197 40 0
197 -93 6 36 64 71 -98 -89 -30 -46 -40 0
-198 -35 0
-198 69 0
-198 -90 0
-198 -91 0
-198 -83 0
-198 27 0
-198 7 0
-198 -60 0
-198 -41 0
-198 65 0
198 35 -69 90 91 83 -27 -7 60 41 -65 0
-199 20 0
-199 75 0
-199 43 0
-199 -37 0
-199 -61 0
-199 76 0
-199 2 0
-199 -35 0
-199 -42 0
-199 28 0
199 -20 -75 -43 37 61 -76 -2 35 42 -28 0
-200 -89 0
-200 46 0
-200 -67 0
-200 -24 0
-200 -75 0
-200 -22 0
-200 -11 0
-200 62 0
-200 -30 0
-200 81 0
200 89 -46 67 24 75 22 11 -62 30 -81 0
191 192 193 194 195 196 197 198 199 200 0
